GLPSOL--GLPK LP/MIP Solver 5.0
Parameter(s) specified in the command line:
 --lp ../modeles/15_59.lp --log 15_59.log
Reading problem data from '../modeles/15_59.lp'...
946 rows, 1800 columns, 6270 non-zeros
885 integer variables, all of which are binary
2767 lines were read
GLPK Integer Optimizer 5.0
946 rows, 1800 columns, 6270 non-zeros
885 integer variables, all of which are binary
Preprocessing...
870 constraint coefficient(s) were reduced
946 rows, 1785 columns, 6255 non-zeros
885 integer variables, all of which are binary
Scaling...
 A: min|aij| =  1.149e-03  max|aij| =  4.000e+00  ratio =  3.481e+03
GM: min|aij| =  1.302e-01  max|aij| =  7.681e+00  ratio =  5.900e+01
EQ: min|aij| =  1.695e-02  max|aij| =  1.000e+00  ratio =  5.900e+01
2N: min|aij| =  1.562e-02  max|aij| =  1.719e+00  ratio =  1.100e+02
Constructing initial basis...
Size of triangular part is 946
Solving LP relaxation...
GLPK Simplex Optimizer 5.0
946 rows, 1785 columns, 6255 non-zeros
      0: obj =   3.000000000e+01 inf =   7.450e+01 (31)
    164: obj =   4.915229885e-01 inf =   0.000e+00 (0)
*   454: obj =  -3.845868644e+00 inf =   1.564e-14 (0)
OPTIMAL LP SOLUTION FOUND
Integer optimization begins...
Long-step dual simplex will be used
+   454: mip =     not found yet >=              -inf        (1; 0)
+   484: >>>>>  -3.845868644e+00 >=  -3.845868644e+00 < 0.1% (27; 0)
+   484: mip =  -3.845868644e+00 >=     tree is empty   0.0% (0; 53)
INTEGER OPTIMAL SOLUTION FOUND
Time used:   0.1 secs
Memory used: 2.8 Mb (2921371 bytes)
